c colouring generated by benchmark framework
p edge 275 274
v 1 0
v 2 1
v 3 0
v 4 1
v 5 0
v 6 0
v 7 2
v 8 2
v 9 1
v 10 1
v 11 2
v 12 1
v 13 0
v 14 2
v 15 2
v 16 0
v 17 0
v 18 0
v 19 0
v 20 1
v 21 1
v 22 1
v 23 2
v 24 1
v 25 2
v 26 2
v 27 1
v 28 2
v 29 0
v 30 1
v 31 0
v 32 1
v 33 0
v 34 1
v 35 0
v 36 0
v 37 0
v 38 1
v 39 0
v 40 2
v 41 1
v 42 2
v 43 1
v 44 2
v 45 2
v 46 1
v 47 2
v 48 0
v 49 1
v 50 2
v 51 0
v 52 0
v 53 2
v 54 2
v 55 2
v 56 2
v 57 0
v 58 1
v 59 0
v 60 0
v 61 1
v 62 1
v 63 0
v 64 0
v 65 1
v 66 1
v 67 2
v 68 2
v 69 0
v 70 1
v 71 0
v 72 1
v 73 1
v 74 0
v 75 2
v 76 2
v 77 2
v 78 2
v 79 0
v 80 1
v 81 0
v 82 2
v 83 2
v 84 2
v 85 0
v 86 0
v 87 0
v 88 1
v 89 1
v 90 1
v 91 0
v 92 0
v 93 1
v 94 0
v 95 2
v 96 1
v 97 0
v 98 2
v 99 0
v 100 0
v 101 0
v 102 1
v 103 2
v 104 2
v 105 1
v 106 1
v 107 0
v 108 1
v 109 2
v 110 1
v 111 0
v 112 0
v 113 0
v 114 2
v 115 0
v 116 2
v 117 0
v 118 1
v 119 1
v 120 0
v 121 2
v 122 0
v 123 1
v 124 2
v 125 1
v 126 0
v 127 0
v 128 1
v 129 0
v 130 0
v 131 1
v 132 1
v 133 0
v 134 2
v 135 1
v 136 2
v 137 2
v 138 0
v 139 1
v 140 1
v 141 1
v 142 2
v 143 2
v 144 2
v 145 2
v 146 2
v 147 1
v 148 1
v 149 1
v 150 0
v 151 0
v 152 1
v 153 0
v 154 1
v 155 2
v 156 2
v 157 2
v 158 0
v 159 1
v 160 1
v 161 1
v 162 2
v 163 0
v 164 0
v 165 1
v 166 2
v 167 1
v 168 2
v 169 2
v 170 0
v 171 2
v 172 0
v 173 0
v 174 2
v 175 1
v 176 0
v 177 2
v 178 2
v 179 1
v 180 2
v 181 0
v 182 1
v 183 1
v 184 2
v 185 2
v 186 2
v 187 0
v 188 0
v 189 0
v 190 1
v 191 2
v 192 2
v 193 0
v 194 2
v 195 1
v 196 0
v 197 0
v 198 0
v 199 1
v 200 1
v 201 1
v 202 2
v 203 1
v 204 0
v 205 0
v 206 1
v 207 0
v 208 2
v 209 2
v 210 1
v 211 2
v 212 1
v 213 2
v 214 0
v 215 1
v 216 1
v 217 0
v 218 0
v 219 0
v 220 0
v 221 2
v 222 2
v 223 2
v 224 1
v 225 0
v 226 1
v 227 0
v 228 1
v 229 1
v 230 0
v 231 1
v 232 1
v 233 0
v 234 2
v 235 0
v 236 0
v 237 2
v 238 1
v 239 0
v 240 0
v 241 2
v 242 1
v 243 1
v 244 1
v 245 1
v 246 0
v 247 0
v 248 0
v 249 0
v 250 1
v 251 1
v 252 2
v 253 1
v 254 0
v 255 0
v 256 2
v 257 1
v 258 0
v 259 1
v 260 1
v 261 0
v 262 1
v 263 1
v 264 0
v 265 0
v 266 1
v 267 1
v 268 0
v 269 0
v 270 2
v 271 0
v 272 1
v 273 2
v 274 0
v 275 1
